\ LP format - for model browsing. Use MPS format to capture full model detail.
Minimize
 
Subject To
 V_0_0: G_0_0_0 + G_0_0_1 + G_0_0_2 + G_0_0_3 + G_0_0_4 + G_0_0_5 + G_0_0_6
   + G_0_0_7 + G_0_0_8 = 1
 V_0_1: G_0_1_0 + G_0_1_1 + G_0_1_2 + G_0_1_3 + G_0_1_4 + G_0_1_5 + G_0_1_6
   + G_0_1_7 + G_0_1_8 = 1
 V_0_2: G_0_2_0 + G_0_2_1 + G_0_2_2 + G_0_2_3 + G_0_2_4 + G_0_2_5 + G_0_2_6
   + G_0_2_7 + G_0_2_8 = 1
 V_0_3: G_0_3_0 + G_0_3_1 + G_0_3_2 + G_0_3_3 + G_0_3_4 + G_0_3_5 + G_0_3_6
   + G_0_3_7 + G_0_3_8 = 1
 V_0_4: G_0_4_0 + G_0_4_1 + G_0_4_2 + G_0_4_3 + G_0_4_4 + G_0_4_5 + G_0_4_6
   + G_0_4_7 + G_0_4_8 = 1
 V_0_5: G_0_5_0 + G_0_5_1 + G_0_5_2 + G_0_5_3 + G_0_5_4 + G_0_5_5 + G_0_5_6
   + G_0_5_7 + G_0_5_8 = 1
 V_0_6: G_0_6_0 + G_0_6_1 + G_0_6_2 + G_0_6_3 + G_0_6_4 + G_0_6_5 + G_0_6_6
   + G_0_6_7 + G_0_6_8 = 1
 V_0_7: G_0_7_0 + G_0_7_1 + G_0_7_2 + G_0_7_3 + G_0_7_4 + G_0_7_5 + G_0_7_6
   + G_0_7_7 + G_0_7_8 = 1
 V_0_8: G_0_8_0 + G_0_8_1 + G_0_8_2 + G_0_8_3 + G_0_8_4 + G_0_8_5 + G_0_8_6
   + G_0_8_7 + G_0_8_8 = 1
 V_1_0: G_1_0_0 + G_1_0_1 + G_1_0_2 + G_1_0_3 + G_1_0_4 + G_1_0_5 + G_1_0_6
   + G_1_0_7 + G_1_0_8 = 1
 V_1_1: G_1_1_0 + G_1_1_1 + G_1_1_2 + G_1_1_3 + G_1_1_4 + G_1_1_5 + G_1_1_6
   + G_1_1_7 + G_1_1_8 = 1
 V_1_2: G_1_2_0 + G_1_2_1 + G_1_2_2 + G_1_2_3 + G_1_2_4 + G_1_2_5 + G_1_2_6
   + G_1_2_7 + G_1_2_8 = 1
 V_1_3: G_1_3_0 + G_1_3_1 + G_1_3_2 + G_1_3_3 + G_1_3_4 + G_1_3_5 + G_1_3_6
   + G_1_3_7 + G_1_3_8 = 1
 V_1_4: G_1_4_0 + G_1_4_1 + G_1_4_2 + G_1_4_3 + G_1_4_4 + G_1_4_5 + G_1_4_6
   + G_1_4_7 + G_1_4_8 = 1
 V_1_5: G_1_5_0 + G_1_5_1 + G_1_5_2 + G_1_5_3 + G_1_5_4 + G_1_5_5 + G_1_5_6
   + G_1_5_7 + G_1_5_8 = 1
 V_1_6: G_1_6_0 + G_1_6_1 + G_1_6_2 + G_1_6_3 + G_1_6_4 + G_1_6_5 + G_1_6_6
   + G_1_6_7 + G_1_6_8 = 1
 V_1_7: G_1_7_0 + G_1_7_1 + G_1_7_2 + G_1_7_3 + G_1_7_4 + G_1_7_5 + G_1_7_6
   + G_1_7_7 + G_1_7_8 = 1
 V_1_8: G_1_8_0 + G_1_8_1 + G_1_8_2 + G_1_8_3 + G_1_8_4 + G_1_8_5 + G_1_8_6
   + G_1_8_7 + G_1_8_8 = 1
 V_2_0: G_2_0_0 + G_2_0_1 + G_2_0_2 + G_2_0_3 + G_2_0_4 + G_2_0_5 + G_2_0_6
   + G_2_0_7 + G_2_0_8 = 1
 V_2_1: G_2_1_0 + G_2_1_1 + G_2_1_2 + G_2_1_3 + G_2_1_4 + G_2_1_5 + G_2_1_6
   + G_2_1_7 + G_2_1_8 = 1
 V_2_2: G_2_2_0 + G_2_2_1 + G_2_2_2 + G_2_2_3 + G_2_2_4 + G_2_2_5 + G_2_2_6
   + G_2_2_7 + G_2_2_8 = 1
 V_2_3: G_2_3_0 + G_2_3_1 + G_2_3_2 + G_2_3_3 + G_2_3_4 + G_2_3_5 + G_2_3_6
   + G_2_3_7 + G_2_3_8 = 1
 V_2_4: G_2_4_0 + G_2_4_1 + G_2_4_2 + G_2_4_3 + G_2_4_4 + G_2_4_5 + G_2_4_6
   + G_2_4_7 + G_2_4_8 = 1
 V_2_5: G_2_5_0 + G_2_5_1 + G_2_5_2 + G_2_5_3 + G_2_5_4 + G_2_5_5 + G_2_5_6
   + G_2_5_7 + G_2_5_8 = 1
 V_2_6: G_2_6_0 + G_2_6_1 + G_2_6_2 + G_2_6_3 + G_2_6_4 + G_2_6_5 + G_2_6_6
   + G_2_6_7 + G_2_6_8 = 1
 V_2_7: G_2_7_0 + G_2_7_1 + G_2_7_2 + G_2_7_3 + G_2_7_4 + G_2_7_5 + G_2_7_6
   + G_2_7_7 + G_2_7_8 = 1
 V_2_8: G_2_8_0 + G_2_8_1 + G_2_8_2 + G_2_8_3 + G_2_8_4 + G_2_8_5 + G_2_8_6
   + G_2_8_7 + G_2_8_8 = 1
 V_3_0: G_3_0_0 + G_3_0_1 + G_3_0_2 + G_3_0_3 + G_3_0_4 + G_3_0_5 + G_3_0_6
   + G_3_0_7 + G_3_0_8 = 1
 V_3_1: G_3_1_0 + G_3_1_1 + G_3_1_2 + G_3_1_3 + G_3_1_4 + G_3_1_5 + G_3_1_6
   + G_3_1_7 + G_3_1_8 = 1
 V_3_2: G_3_2_0 + G_3_2_1 + G_3_2_2 + G_3_2_3 + G_3_2_4 + G_3_2_5 + G_3_2_6
   + G_3_2_7 + G_3_2_8 = 1
 V_3_3: G_3_3_0 + G_3_3_1 + G_3_3_2 + G_3_3_3 + G_3_3_4 + G_3_3_5 + G_3_3_6
   + G_3_3_7 + G_3_3_8 = 1
 V_3_4: G_3_4_0 + G_3_4_1 + G_3_4_2 + G_3_4_3 + G_3_4_4 + G_3_4_5 + G_3_4_6
   + G_3_4_7 + G_3_4_8 = 1
 V_3_5: G_3_5_0 + G_3_5_1 + G_3_5_2 + G_3_5_3 + G_3_5_4 + G_3_5_5 + G_3_5_6
   + G_3_5_7 + G_3_5_8 = 1
 V_3_6: G_3_6_0 + G_3_6_1 + G_3_6_2 + G_3_6_3 + G_3_6_4 + G_3_6_5 + G_3_6_6
   + G_3_6_7 + G_3_6_8 = 1
 V_3_7: G_3_7_0 + G_3_7_1 + G_3_7_2 + G_3_7_3 + G_3_7_4 + G_3_7_5 + G_3_7_6
   + G_3_7_7 + G_3_7_8 = 1
 V_3_8: G_3_8_0 + G_3_8_1 + G_3_8_2 + G_3_8_3 + G_3_8_4 + G_3_8_5 + G_3_8_6
   + G_3_8_7 + G_3_8_8 = 1
 V_4_0: G_4_0_0 + G_4_0_1 + G_4_0_2 + G_4_0_3 + G_4_0_4 + G_4_0_5 + G_4_0_6
   + G_4_0_7 + G_4_0_8 = 1
 V_4_1: G_4_1_0 + G_4_1_1 + G_4_1_2 + G_4_1_3 + G_4_1_4 + G_4_1_5 + G_4_1_6
   + G_4_1_7 + G_4_1_8 = 1
 V_4_2: G_4_2_0 + G_4_2_1 + G_4_2_2 + G_4_2_3 + G_4_2_4 + G_4_2_5 + G_4_2_6
   + G_4_2_7 + G_4_2_8 = 1
 V_4_3: G_4_3_0 + G_4_3_1 + G_4_3_2 + G_4_3_3 + G_4_3_4 + G_4_3_5 + G_4_3_6
   + G_4_3_7 + G_4_3_8 = 1
 V_4_4: G_4_4_0 + G_4_4_1 + G_4_4_2 + G_4_4_3 + G_4_4_4 + G_4_4_5 + G_4_4_6
   + G_4_4_7 + G_4_4_8 = 1
 V_4_5: G_4_5_0 + G_4_5_1 + G_4_5_2 + G_4_5_3 + G_4_5_4 + G_4_5_5 + G_4_5_6
   + G_4_5_7 + G_4_5_8 = 1
 V_4_6: G_4_6_0 + G_4_6_1 + G_4_6_2 + G_4_6_3 + G_4_6_4 + G_4_6_5 + G_4_6_6
   + G_4_6_7 + G_4_6_8 = 1
 V_4_7: G_4_7_0 + G_4_7_1 + G_4_7_2 + G_4_7_3 + G_4_7_4 + G_4_7_5 + G_4_7_6
   + G_4_7_7 + G_4_7_8 = 1
 V_4_8: G_4_8_0 + G_4_8_1 + G_4_8_2 + G_4_8_3 + G_4_8_4 + G_4_8_5 + G_4_8_6
   + G_4_8_7 + G_4_8_8 = 1
 V_5_0: G_5_0_0 + G_5_0_1 + G_5_0_2 + G_5_0_3 + G_5_0_4 + G_5_0_5 + G_5_0_6
   + G_5_0_7 + G_5_0_8 = 1
 V_5_1: G_5_1_0 + G_5_1_1 + G_5_1_2 + G_5_1_3 + G_5_1_4 + G_5_1_5 + G_5_1_6
   + G_5_1_7 + G_5_1_8 = 1
 V_5_2: G_5_2_0 + G_5_2_1 + G_5_2_2 + G_5_2_3 + G_5_2_4 + G_5_2_5 + G_5_2_6
   + G_5_2_7 + G_5_2_8 = 1
 V_5_3: G_5_3_0 + G_5_3_1 + G_5_3_2 + G_5_3_3 + G_5_3_4 + G_5_3_5 + G_5_3_6
   + G_5_3_7 + G_5_3_8 = 1
 V_5_4: G_5_4_0 + G_5_4_1 + G_5_4_2 + G_5_4_3 + G_5_4_4 + G_5_4_5 + G_5_4_6
   + G_5_4_7 + G_5_4_8 = 1
 V_5_5: G_5_5_0 + G_5_5_1 + G_5_5_2 + G_5_5_3 + G_5_5_4 + G_5_5_5 + G_5_5_6
   + G_5_5_7 + G_5_5_8 = 1
 V_5_6: G_5_6_0 + G_5_6_1 + G_5_6_2 + G_5_6_3 + G_5_6_4 + G_5_6_5 + G_5_6_6
   + G_5_6_7 + G_5_6_8 = 1
 V_5_7: G_5_7_0 + G_5_7_1 + G_5_7_2 + G_5_7_3 + G_5_7_4 + G_5_7_5 + G_5_7_6
   + G_5_7_7 + G_5_7_8 = 1
 V_5_8: G_5_8_0 + G_5_8_1 + G_5_8_2 + G_5_8_3 + G_5_8_4 + G_5_8_5 + G_5_8_6
   + G_5_8_7 + G_5_8_8 = 1
 V_6_0: G_6_0_0 + G_6_0_1 + G_6_0_2 + G_6_0_3 + G_6_0_4 + G_6_0_5 + G_6_0_6
   + G_6_0_7 + G_6_0_8 = 1
 V_6_1: G_6_1_0 + G_6_1_1 + G_6_1_2 + G_6_1_3 + G_6_1_4 + G_6_1_5 + G_6_1_6
   + G_6_1_7 + G_6_1_8 = 1
 V_6_2: G_6_2_0 + G_6_2_1 + G_6_2_2 + G_6_2_3 + G_6_2_4 + G_6_2_5 + G_6_2_6
   + G_6_2_7 + G_6_2_8 = 1
 V_6_3: G_6_3_0 + G_6_3_1 + G_6_3_2 + G_6_3_3 + G_6_3_4 + G_6_3_5 + G_6_3_6
   + G_6_3_7 + G_6_3_8 = 1
 V_6_4: G_6_4_0 + G_6_4_1 + G_6_4_2 + G_6_4_3 + G_6_4_4 + G_6_4_5 + G_6_4_6
   + G_6_4_7 + G_6_4_8 = 1
 V_6_5: G_6_5_0 + G_6_5_1 + G_6_5_2 + G_6_5_3 + G_6_5_4 + G_6_5_5 + G_6_5_6
   + G_6_5_7 + G_6_5_8 = 1
 V_6_6: G_6_6_0 + G_6_6_1 + G_6_6_2 + G_6_6_3 + G_6_6_4 + G_6_6_5 + G_6_6_6
   + G_6_6_7 + G_6_6_8 = 1
 V_6_7: G_6_7_0 + G_6_7_1 + G_6_7_2 + G_6_7_3 + G_6_7_4 + G_6_7_5 + G_6_7_6
   + G_6_7_7 + G_6_7_8 = 1
 V_6_8: G_6_8_0 + G_6_8_1 + G_6_8_2 + G_6_8_3 + G_6_8_4 + G_6_8_5 + G_6_8_6
   + G_6_8_7 + G_6_8_8 = 1
 V_7_0: G_7_0_0 + G_7_0_1 + G_7_0_2 + G_7_0_3 + G_7_0_4 + G_7_0_5 + G_7_0_6
   + G_7_0_7 + G_7_0_8 = 1
 V_7_1: G_7_1_0 + G_7_1_1 + G_7_1_2 + G_7_1_3 + G_7_1_4 + G_7_1_5 + G_7_1_6
   + G_7_1_7 + G_7_1_8 = 1
 V_7_2: G_7_2_0 + G_7_2_1 + G_7_2_2 + G_7_2_3 + G_7_2_4 + G_7_2_5 + G_7_2_6
   + G_7_2_7 + G_7_2_8 = 1
 V_7_3: G_7_3_0 + G_7_3_1 + G_7_3_2 + G_7_3_3 + G_7_3_4 + G_7_3_5 + G_7_3_6
   + G_7_3_7 + G_7_3_8 = 1
 V_7_4: G_7_4_0 + G_7_4_1 + G_7_4_2 + G_7_4_3 + G_7_4_4 + G_7_4_5 + G_7_4_6
   + G_7_4_7 + G_7_4_8 = 1
 V_7_5: G_7_5_0 + G_7_5_1 + G_7_5_2 + G_7_5_3 + G_7_5_4 + G_7_5_5 + G_7_5_6
   + G_7_5_7 + G_7_5_8 = 1
 V_7_6: G_7_6_0 + G_7_6_1 + G_7_6_2 + G_7_6_3 + G_7_6_4 + G_7_6_5 + G_7_6_6
   + G_7_6_7 + G_7_6_8 = 1
 V_7_7: G_7_7_0 + G_7_7_1 + G_7_7_2 + G_7_7_3 + G_7_7_4 + G_7_7_5 + G_7_7_6
   + G_7_7_7 + G_7_7_8 = 1
 V_7_8: G_7_8_0 + G_7_8_1 + G_7_8_2 + G_7_8_3 + G_7_8_4 + G_7_8_5 + G_7_8_6
   + G_7_8_7 + G_7_8_8 = 1
 V_8_0: G_8_0_0 + G_8_0_1 + G_8_0_2 + G_8_0_3 + G_8_0_4 + G_8_0_5 + G_8_0_6
   + G_8_0_7 + G_8_0_8 = 1
 V_8_1: G_8_1_0 + G_8_1_1 + G_8_1_2 + G_8_1_3 + G_8_1_4 + G_8_1_5 + G_8_1_6
   + G_8_1_7 + G_8_1_8 = 1
 V_8_2: G_8_2_0 + G_8_2_1 + G_8_2_2 + G_8_2_3 + G_8_2_4 + G_8_2_5 + G_8_2_6
   + G_8_2_7 + G_8_2_8 = 1
 V_8_3: G_8_3_0 + G_8_3_1 + G_8_3_2 + G_8_3_3 + G_8_3_4 + G_8_3_5 + G_8_3_6
   + G_8_3_7 + G_8_3_8 = 1
 V_8_4: G_8_4_0 + G_8_4_1 + G_8_4_2 + G_8_4_3 + G_8_4_4 + G_8_4_5 + G_8_4_6
   + G_8_4_7 + G_8_4_8 = 1
 V_8_5: G_8_5_0 + G_8_5_1 + G_8_5_2 + G_8_5_3 + G_8_5_4 + G_8_5_5 + G_8_5_6
   + G_8_5_7 + G_8_5_8 = 1
 V_8_6: G_8_6_0 + G_8_6_1 + G_8_6_2 + G_8_6_3 + G_8_6_4 + G_8_6_5 + G_8_6_6
   + G_8_6_7 + G_8_6_8 = 1
 V_8_7: G_8_7_0 + G_8_7_1 + G_8_7_2 + G_8_7_3 + G_8_7_4 + G_8_7_5 + G_8_7_6
   + G_8_7_7 + G_8_7_8 = 1
 V_8_8: G_8_8_0 + G_8_8_1 + G_8_8_2 + G_8_8_3 + G_8_8_4 + G_8_8_5 + G_8_8_6
   + G_8_8_7 + G_8_8_8 = 1
 R_0_0: G_0_0_0 + G_0_1_0 + G_0_2_0 + G_0_3_0 + G_0_4_0 + G_0_5_0 + G_0_6_0
   + G_0_7_0 + G_0_8_0 = 1
 R_0_1: G_0_0_1 + G_0_1_1 + G_0_2_1 + G_0_3_1 + G_0_4_1 + G_0_5_1 + G_0_6_1
   + G_0_7_1 + G_0_8_1 = 1
 R_0_2: G_0_0_2 + G_0_1_2 + G_0_2_2 + G_0_3_2 + G_0_4_2 + G_0_5_2 + G_0_6_2
   + G_0_7_2 + G_0_8_2 = 1
 R_0_3: G_0_0_3 + G_0_1_3 + G_0_2_3 + G_0_3_3 + G_0_4_3 + G_0_5_3 + G_0_6_3
   + G_0_7_3 + G_0_8_3 = 1
 R_0_4: G_0_0_4 + G_0_1_4 + G_0_2_4 + G_0_3_4 + G_0_4_4 + G_0_5_4 + G_0_6_4
   + G_0_7_4 + G_0_8_4 = 1
 R_0_5: G_0_0_5 + G_0_1_5 + G_0_2_5 + G_0_3_5 + G_0_4_5 + G_0_5_5 + G_0_6_5
   + G_0_7_5 + G_0_8_5 = 1
 R_0_6: G_0_0_6 + G_0_1_6 + G_0_2_6 + G_0_3_6 + G_0_4_6 + G_0_5_6 + G_0_6_6
   + G_0_7_6 + G_0_8_6 = 1
 R_0_7: G_0_0_7 + G_0_1_7 + G_0_2_7 + G_0_3_7 + G_0_4_7 + G_0_5_7 + G_0_6_7
   + G_0_7_7 + G_0_8_7 = 1
 R_0_8: G_0_0_8 + G_0_1_8 + G_0_2_8 + G_0_3_8 + G_0_4_8 + G_0_5_8 + G_0_6_8
   + G_0_7_8 + G_0_8_8 = 1
 R_1_0: G_1_0_0 + G_1_1_0 + G_1_2_0 + G_1_3_0 + G_1_4_0 + G_1_5_0 + G_1_6_0
   + G_1_7_0 + G_1_8_0 = 1
 R_1_1: G_1_0_1 + G_1_1_1 + G_1_2_1 + G_1_3_1 + G_1_4_1 + G_1_5_1 + G_1_6_1
   + G_1_7_1 + G_1_8_1 = 1
 R_1_2: G_1_0_2 + G_1_1_2 + G_1_2_2 + G_1_3_2 + G_1_4_2 + G_1_5_2 + G_1_6_2
   + G_1_7_2 + G_1_8_2 = 1
 R_1_3: G_1_0_3 + G_1_1_3 + G_1_2_3 + G_1_3_3 + G_1_4_3 + G_1_5_3 + G_1_6_3
   + G_1_7_3 + G_1_8_3 = 1
 R_1_4: G_1_0_4 + G_1_1_4 + G_1_2_4 + G_1_3_4 + G_1_4_4 + G_1_5_4 + G_1_6_4
   + G_1_7_4 + G_1_8_4 = 1
 R_1_5: G_1_0_5 + G_1_1_5 + G_1_2_5 + G_1_3_5 + G_1_4_5 + G_1_5_5 + G_1_6_5
   + G_1_7_5 + G_1_8_5 = 1
 R_1_6: G_1_0_6 + G_1_1_6 + G_1_2_6 + G_1_3_6 + G_1_4_6 + G_1_5_6 + G_1_6_6
   + G_1_7_6 + G_1_8_6 = 1
 R_1_7: G_1_0_7 + G_1_1_7 + G_1_2_7 + G_1_3_7 + G_1_4_7 + G_1_5_7 + G_1_6_7
   + G_1_7_7 + G_1_8_7 = 1
 R_1_8: G_1_0_8 + G_1_1_8 + G_1_2_8 + G_1_3_8 + G_1_4_8 + G_1_5_8 + G_1_6_8
   + G_1_7_8 + G_1_8_8 = 1
 R_2_0: G_2_0_0 + G_2_1_0 + G_2_2_0 + G_2_3_0 + G_2_4_0 + G_2_5_0 + G_2_6_0
   + G_2_7_0 + G_2_8_0 = 1
 R_2_1: G_2_0_1 + G_2_1_1 + G_2_2_1 + G_2_3_1 + G_2_4_1 + G_2_5_1 + G_2_6_1
   + G_2_7_1 + G_2_8_1 = 1
 R_2_2: G_2_0_2 + G_2_1_2 + G_2_2_2 + G_2_3_2 + G_2_4_2 + G_2_5_2 + G_2_6_2
   + G_2_7_2 + G_2_8_2 = 1
 R_2_3: G_2_0_3 + G_2_1_3 + G_2_2_3 + G_2_3_3 + G_2_4_3 + G_2_5_3 + G_2_6_3
   + G_2_7_3 + G_2_8_3 = 1
 R_2_4: G_2_0_4 + G_2_1_4 + G_2_2_4 + G_2_3_4 + G_2_4_4 + G_2_5_4 + G_2_6_4
   + G_2_7_4 + G_2_8_4 = 1
 R_2_5: G_2_0_5 + G_2_1_5 + G_2_2_5 + G_2_3_5 + G_2_4_5 + G_2_5_5 + G_2_6_5
   + G_2_7_5 + G_2_8_5 = 1
 R_2_6: G_2_0_6 + G_2_1_6 + G_2_2_6 + G_2_3_6 + G_2_4_6 + G_2_5_6 + G_2_6_6
   + G_2_7_6 + G_2_8_6 = 1
 R_2_7: G_2_0_7 + G_2_1_7 + G_2_2_7 + G_2_3_7 + G_2_4_7 + G_2_5_7 + G_2_6_7
   + G_2_7_7 + G_2_8_7 = 1
 R_2_8: G_2_0_8 + G_2_1_8 + G_2_2_8 + G_2_3_8 + G_2_4_8 + G_2_5_8 + G_2_6_8
   + G_2_7_8 + G_2_8_8 = 1
 R_3_0: G_3_0_0 + G_3_1_0 + G_3_2_0 + G_3_3_0 + G_3_4_0 + G_3_5_0 + G_3_6_0
   + G_3_7_0 + G_3_8_0 = 1
 R_3_1: G_3_0_1 + G_3_1_1 + G_3_2_1 + G_3_3_1 + G_3_4_1 + G_3_5_1 + G_3_6_1
   + G_3_7_1 + G_3_8_1 = 1
 R_3_2: G_3_0_2 + G_3_1_2 + G_3_2_2 + G_3_3_2 + G_3_4_2 + G_3_5_2 + G_3_6_2
   + G_3_7_2 + G_3_8_2 = 1
 R_3_3: G_3_0_3 + G_3_1_3 + G_3_2_3 + G_3_3_3 + G_3_4_3 + G_3_5_3 + G_3_6_3
   + G_3_7_3 + G_3_8_3 = 1
 R_3_4: G_3_0_4 + G_3_1_4 + G_3_2_4 + G_3_3_4 + G_3_4_4 + G_3_5_4 + G_3_6_4
   + G_3_7_4 + G_3_8_4 = 1
 R_3_5: G_3_0_5 + G_3_1_5 + G_3_2_5 + G_3_3_5 + G_3_4_5 + G_3_5_5 + G_3_6_5
   + G_3_7_5 + G_3_8_5 = 1
 R_3_6: G_3_0_6 + G_3_1_6 + G_3_2_6 + G_3_3_6 + G_3_4_6 + G_3_5_6 + G_3_6_6
   + G_3_7_6 + G_3_8_6 = 1
 R_3_7: G_3_0_7 + G_3_1_7 + G_3_2_7 + G_3_3_7 + G_3_4_7 + G_3_5_7 + G_3_6_7
   + G_3_7_7 + G_3_8_7 = 1
 R_3_8: G_3_0_8 + G_3_1_8 + G_3_2_8 + G_3_3_8 + G_3_4_8 + G_3_5_8 + G_3_6_8
   + G_3_7_8 + G_3_8_8 = 1
 R_4_0: G_4_0_0 + G_4_1_0 + G_4_2_0 + G_4_3_0 + G_4_4_0 + G_4_5_0 + G_4_6_0
   + G_4_7_0 + G_4_8_0 = 1
 R_4_1: G_4_0_1 + G_4_1_1 + G_4_2_1 + G_4_3_1 + G_4_4_1 + G_4_5_1 + G_4_6_1
   + G_4_7_1 + G_4_8_1 = 1
 R_4_2: G_4_0_2 + G_4_1_2 + G_4_2_2 + G_4_3_2 + G_4_4_2 + G_4_5_2 + G_4_6_2
   + G_4_7_2 + G_4_8_2 = 1
 R_4_3: G_4_0_3 + G_4_1_3 + G_4_2_3 + G_4_3_3 + G_4_4_3 + G_4_5_3 + G_4_6_3
   + G_4_7_3 + G_4_8_3 = 1
 R_4_4: G_4_0_4 + G_4_1_4 + G_4_2_4 + G_4_3_4 + G_4_4_4 + G_4_5_4 + G_4_6_4
   + G_4_7_4 + G_4_8_4 = 1
 R_4_5: G_4_0_5 + G_4_1_5 + G_4_2_5 + G_4_3_5 + G_4_4_5 + G_4_5_5 + G_4_6_5
   + G_4_7_5 + G_4_8_5 = 1
 R_4_6: G_4_0_6 + G_4_1_6 + G_4_2_6 + G_4_3_6 + G_4_4_6 + G_4_5_6 + G_4_6_6
   + G_4_7_6 + G_4_8_6 = 1
 R_4_7: G_4_0_7 + G_4_1_7 + G_4_2_7 + G_4_3_7 + G_4_4_7 + G_4_5_7 + G_4_6_7
   + G_4_7_7 + G_4_8_7 = 1
 R_4_8: G_4_0_8 + G_4_1_8 + G_4_2_8 + G_4_3_8 + G_4_4_8 + G_4_5_8 + G_4_6_8
   + G_4_7_8 + G_4_8_8 = 1
 R_5_0: G_5_0_0 + G_5_1_0 + G_5_2_0 + G_5_3_0 + G_5_4_0 + G_5_5_0 + G_5_6_0
   + G_5_7_0 + G_5_8_0 = 1
 R_5_1: G_5_0_1 + G_5_1_1 + G_5_2_1 + G_5_3_1 + G_5_4_1 + G_5_5_1 + G_5_6_1
   + G_5_7_1 + G_5_8_1 = 1
 R_5_2: G_5_0_2 + G_5_1_2 + G_5_2_2 + G_5_3_2 + G_5_4_2 + G_5_5_2 + G_5_6_2
   + G_5_7_2 + G_5_8_2 = 1
 R_5_3: G_5_0_3 + G_5_1_3 + G_5_2_3 + G_5_3_3 + G_5_4_3 + G_5_5_3 + G_5_6_3
   + G_5_7_3 + G_5_8_3 = 1
 R_5_4: G_5_0_4 + G_5_1_4 + G_5_2_4 + G_5_3_4 + G_5_4_4 + G_5_5_4 + G_5_6_4
   + G_5_7_4 + G_5_8_4 = 1
 R_5_5: G_5_0_5 + G_5_1_5 + G_5_2_5 + G_5_3_5 + G_5_4_5 + G_5_5_5 + G_5_6_5
   + G_5_7_5 + G_5_8_5 = 1
 R_5_6: G_5_0_6 + G_5_1_6 + G_5_2_6 + G_5_3_6 + G_5_4_6 + G_5_5_6 + G_5_6_6
   + G_5_7_6 + G_5_8_6 = 1
 R_5_7: G_5_0_7 + G_5_1_7 + G_5_2_7 + G_5_3_7 + G_5_4_7 + G_5_5_7 + G_5_6_7
   + G_5_7_7 + G_5_8_7 = 1
 R_5_8: G_5_0_8 + G_5_1_8 + G_5_2_8 + G_5_3_8 + G_5_4_8 + G_5_5_8 + G_5_6_8
   + G_5_7_8 + G_5_8_8 = 1
 R_6_0: G_6_0_0 + G_6_1_0 + G_6_2_0 + G_6_3_0 + G_6_4_0 + G_6_5_0 + G_6_6_0
   + G_6_7_0 + G_6_8_0 = 1
 R_6_1: G_6_0_1 + G_6_1_1 + G_6_2_1 + G_6_3_1 + G_6_4_1 + G_6_5_1 + G_6_6_1
   + G_6_7_1 + G_6_8_1 = 1
 R_6_2: G_6_0_2 + G_6_1_2 + G_6_2_2 + G_6_3_2 + G_6_4_2 + G_6_5_2 + G_6_6_2
   + G_6_7_2 + G_6_8_2 = 1
 R_6_3: G_6_0_3 + G_6_1_3 + G_6_2_3 + G_6_3_3 + G_6_4_3 + G_6_5_3 + G_6_6_3
   + G_6_7_3 + G_6_8_3 = 1
 R_6_4: G_6_0_4 + G_6_1_4 + G_6_2_4 + G_6_3_4 + G_6_4_4 + G_6_5_4 + G_6_6_4
   + G_6_7_4 + G_6_8_4 = 1
 R_6_5: G_6_0_5 + G_6_1_5 + G_6_2_5 + G_6_3_5 + G_6_4_5 + G_6_5_5 + G_6_6_5
   + G_6_7_5 + G_6_8_5 = 1
 R_6_6: G_6_0_6 + G_6_1_6 + G_6_2_6 + G_6_3_6 + G_6_4_6 + G_6_5_6 + G_6_6_6
   + G_6_7_6 + G_6_8_6 = 1
 R_6_7: G_6_0_7 + G_6_1_7 + G_6_2_7 + G_6_3_7 + G_6_4_7 + G_6_5_7 + G_6_6_7
   + G_6_7_7 + G_6_8_7 = 1
 R_6_8: G_6_0_8 + G_6_1_8 + G_6_2_8 + G_6_3_8 + G_6_4_8 + G_6_5_8 + G_6_6_8
   + G_6_7_8 + G_6_8_8 = 1
 R_7_0: G_7_0_0 + G_7_1_0 + G_7_2_0 + G_7_3_0 + G_7_4_0 + G_7_5_0 + G_7_6_0
   + G_7_7_0 + G_7_8_0 = 1
 R_7_1: G_7_0_1 + G_7_1_1 + G_7_2_1 + G_7_3_1 + G_7_4_1 + G_7_5_1 + G_7_6_1
   + G_7_7_1 + G_7_8_1 = 1
 R_7_2: G_7_0_2 + G_7_1_2 + G_7_2_2 + G_7_3_2 + G_7_4_2 + G_7_5_2 + G_7_6_2
   + G_7_7_2 + G_7_8_2 = 1
 R_7_3: G_7_0_3 + G_7_1_3 + G_7_2_3 + G_7_3_3 + G_7_4_3 + G_7_5_3 + G_7_6_3
   + G_7_7_3 + G_7_8_3 = 1
 R_7_4: G_7_0_4 + G_7_1_4 + G_7_2_4 + G_7_3_4 + G_7_4_4 + G_7_5_4 + G_7_6_4
   + G_7_7_4 + G_7_8_4 = 1
 R_7_5: G_7_0_5 + G_7_1_5 + G_7_2_5 + G_7_3_5 + G_7_4_5 + G_7_5_5 + G_7_6_5
   + G_7_7_5 + G_7_8_5 = 1
 R_7_6: G_7_0_6 + G_7_1_6 + G_7_2_6 + G_7_3_6 + G_7_4_6 + G_7_5_6 + G_7_6_6
   + G_7_7_6 + G_7_8_6 = 1
 R_7_7: G_7_0_7 + G_7_1_7 + G_7_2_7 + G_7_3_7 + G_7_4_7 + G_7_5_7 + G_7_6_7
   + G_7_7_7 + G_7_8_7 = 1
 R_7_8: G_7_0_8 + G_7_1_8 + G_7_2_8 + G_7_3_8 + G_7_4_8 + G_7_5_8 + G_7_6_8
   + G_7_7_8 + G_7_8_8 = 1
 R_8_0: G_8_0_0 + G_8_1_0 + G_8_2_0 + G_8_3_0 + G_8_4_0 + G_8_5_0 + G_8_6_0
   + G_8_7_0 + G_8_8_0 = 1
 R_8_1: G_8_0_1 + G_8_1_1 + G_8_2_1 + G_8_3_1 + G_8_4_1 + G_8_5_1 + G_8_6_1
   + G_8_7_1 + G_8_8_1 = 1
 R_8_2: G_8_0_2 + G_8_1_2 + G_8_2_2 + G_8_3_2 + G_8_4_2 + G_8_5_2 + G_8_6_2
   + G_8_7_2 + G_8_8_2 = 1
 R_8_3: G_8_0_3 + G_8_1_3 + G_8_2_3 + G_8_3_3 + G_8_4_3 + G_8_5_3 + G_8_6_3
   + G_8_7_3 + G_8_8_3 = 1
 R_8_4: G_8_0_4 + G_8_1_4 + G_8_2_4 + G_8_3_4 + G_8_4_4 + G_8_5_4 + G_8_6_4
   + G_8_7_4 + G_8_8_4 = 1
 R_8_5: G_8_0_5 + G_8_1_5 + G_8_2_5 + G_8_3_5 + G_8_4_5 + G_8_5_5 + G_8_6_5
   + G_8_7_5 + G_8_8_5 = 1
 R_8_6: G_8_0_6 + G_8_1_6 + G_8_2_6 + G_8_3_6 + G_8_4_6 + G_8_5_6 + G_8_6_6
   + G_8_7_6 + G_8_8_6 = 1
 R_8_7: G_8_0_7 + G_8_1_7 + G_8_2_7 + G_8_3_7 + G_8_4_7 + G_8_5_7 + G_8_6_7
   + G_8_7_7 + G_8_8_7 = 1
 R_8_8: G_8_0_8 + G_8_1_8 + G_8_2_8 + G_8_3_8 + G_8_4_8 + G_8_5_8 + G_8_6_8
   + G_8_7_8 + G_8_8_8 = 1
 C_0_0: G_0_0_0 + G_1_0_0 + G_2_0_0 + G_3_0_0 + G_4_0_0 + G_5_0_0 + G_6_0_0
   + G_7_0_0 + G_8_0_0 = 1
 C_0_1: G_0_0_1 + G_1_0_1 + G_2_0_1 + G_3_0_1 + G_4_0_1 + G_5_0_1 + G_6_0_1
   + G_7_0_1 + G_8_0_1 = 1
 C_0_2: G_0_0_2 + G_1_0_2 + G_2_0_2 + G_3_0_2 + G_4_0_2 + G_5_0_2 + G_6_0_2
   + G_7_0_2 + G_8_0_2 = 1
 C_0_3: G_0_0_3 + G_1_0_3 + G_2_0_3 + G_3_0_3 + G_4_0_3 + G_5_0_3 + G_6_0_3
   + G_7_0_3 + G_8_0_3 = 1
 C_0_4: G_0_0_4 + G_1_0_4 + G_2_0_4 + G_3_0_4 + G_4_0_4 + G_5_0_4 + G_6_0_4
   + G_7_0_4 + G_8_0_4 = 1
 C_0_5: G_0_0_5 + G_1_0_5 + G_2_0_5 + G_3_0_5 + G_4_0_5 + G_5_0_5 + G_6_0_5
   + G_7_0_5 + G_8_0_5 = 1
 C_0_6: G_0_0_6 + G_1_0_6 + G_2_0_6 + G_3_0_6 + G_4_0_6 + G_5_0_6 + G_6_0_6
   + G_7_0_6 + G_8_0_6 = 1
 C_0_7: G_0_0_7 + G_1_0_7 + G_2_0_7 + G_3_0_7 + G_4_0_7 + G_5_0_7 + G_6_0_7
   + G_7_0_7 + G_8_0_7 = 1
 C_0_8: G_0_0_8 + G_1_0_8 + G_2_0_8 + G_3_0_8 + G_4_0_8 + G_5_0_8 + G_6_0_8
   + G_7_0_8 + G_8_0_8 = 1
 C_1_0: G_0_1_0 + G_1_1_0 + G_2_1_0 + G_3_1_0 + G_4_1_0 + G_5_1_0 + G_6_1_0
   + G_7_1_0 + G_8_1_0 = 1
 C_1_1: G_0_1_1 + G_1_1_1 + G_2_1_1 + G_3_1_1 + G_4_1_1 + G_5_1_1 + G_6_1_1
   + G_7_1_1 + G_8_1_1 = 1
 C_1_2: G_0_1_2 + G_1_1_2 + G_2_1_2 + G_3_1_2 + G_4_1_2 + G_5_1_2 + G_6_1_2
   + G_7_1_2 + G_8_1_2 = 1
 C_1_3: G_0_1_3 + G_1_1_3 + G_2_1_3 + G_3_1_3 + G_4_1_3 + G_5_1_3 + G_6_1_3
   + G_7_1_3 + G_8_1_3 = 1
 C_1_4: G_0_1_4 + G_1_1_4 + G_2_1_4 + G_3_1_4 + G_4_1_4 + G_5_1_4 + G_6_1_4
   + G_7_1_4 + G_8_1_4 = 1
 C_1_5: G_0_1_5 + G_1_1_5 + G_2_1_5 + G_3_1_5 + G_4_1_5 + G_5_1_5 + G_6_1_5
   + G_7_1_5 + G_8_1_5 = 1
 C_1_6: G_0_1_6 + G_1_1_6 + G_2_1_6 + G_3_1_6 + G_4_1_6 + G_5_1_6 + G_6_1_6
   + G_7_1_6 + G_8_1_6 = 1
 C_1_7: G_0_1_7 + G_1_1_7 + G_2_1_7 + G_3_1_7 + G_4_1_7 + G_5_1_7 + G_6_1_7
   + G_7_1_7 + G_8_1_7 = 1
 C_1_8: G_0_1_8 + G_1_1_8 + G_2_1_8 + G_3_1_8 + G_4_1_8 + G_5_1_8 + G_6_1_8
   + G_7_1_8 + G_8_1_8 = 1
 C_2_0: G_0_2_0 + G_1_2_0 + G_2_2_0 + G_3_2_0 + G_4_2_0 + G_5_2_0 + G_6_2_0
   + G_7_2_0 + G_8_2_0 = 1
 C_2_1: G_0_2_1 + G_1_2_1 + G_2_2_1 + G_3_2_1 + G_4_2_1 + G_5_2_1 + G_6_2_1
   + G_7_2_1 + G_8_2_1 = 1
 C_2_2: G_0_2_2 + G_1_2_2 + G_2_2_2 + G_3_2_2 + G_4_2_2 + G_5_2_2 + G_6_2_2
   + G_7_2_2 + G_8_2_2 = 1
 C_2_3: G_0_2_3 + G_1_2_3 + G_2_2_3 + G_3_2_3 + G_4_2_3 + G_5_2_3 + G_6_2_3
   + G_7_2_3 + G_8_2_3 = 1
 C_2_4: G_0_2_4 + G_1_2_4 + G_2_2_4 + G_3_2_4 + G_4_2_4 + G_5_2_4 + G_6_2_4
   + G_7_2_4 + G_8_2_4 = 1
 C_2_5: G_0_2_5 + G_1_2_5 + G_2_2_5 + G_3_2_5 + G_4_2_5 + G_5_2_5 + G_6_2_5
   + G_7_2_5 + G_8_2_5 = 1
 C_2_6: G_0_2_6 + G_1_2_6 + G_2_2_6 + G_3_2_6 + G_4_2_6 + G_5_2_6 + G_6_2_6
   + G_7_2_6 + G_8_2_6 = 1
 C_2_7: G_0_2_7 + G_1_2_7 + G_2_2_7 + G_3_2_7 + G_4_2_7 + G_5_2_7 + G_6_2_7
   + G_7_2_7 + G_8_2_7 = 1
 C_2_8: G_0_2_8 + G_1_2_8 + G_2_2_8 + G_3_2_8 + G_4_2_8 + G_5_2_8 + G_6_2_8
   + G_7_2_8 + G_8_2_8 = 1
 C_3_0: G_0_3_0 + G_1_3_0 + G_2_3_0 + G_3_3_0 + G_4_3_0 + G_5_3_0 + G_6_3_0
   + G_7_3_0 + G_8_3_0 = 1
 C_3_1: G_0_3_1 + G_1_3_1 + G_2_3_1 + G_3_3_1 + G_4_3_1 + G_5_3_1 + G_6_3_1
   + G_7_3_1 + G_8_3_1 = 1
 C_3_2: G_0_3_2 + G_1_3_2 + G_2_3_2 + G_3_3_2 + G_4_3_2 + G_5_3_2 + G_6_3_2
   + G_7_3_2 + G_8_3_2 = 1
 C_3_3: G_0_3_3 + G_1_3_3 + G_2_3_3 + G_3_3_3 + G_4_3_3 + G_5_3_3 + G_6_3_3
   + G_7_3_3 + G_8_3_3 = 1
 C_3_4: G_0_3_4 + G_1_3_4 + G_2_3_4 + G_3_3_4 + G_4_3_4 + G_5_3_4 + G_6_3_4
   + G_7_3_4 + G_8_3_4 = 1
 C_3_5: G_0_3_5 + G_1_3_5 + G_2_3_5 + G_3_3_5 + G_4_3_5 + G_5_3_5 + G_6_3_5
   + G_7_3_5 + G_8_3_5 = 1
 C_3_6: G_0_3_6 + G_1_3_6 + G_2_3_6 + G_3_3_6 + G_4_3_6 + G_5_3_6 + G_6_3_6
   + G_7_3_6 + G_8_3_6 = 1
 C_3_7: G_0_3_7 + G_1_3_7 + G_2_3_7 + G_3_3_7 + G_4_3_7 + G_5_3_7 + G_6_3_7
   + G_7_3_7 + G_8_3_7 = 1
 C_3_8: G_0_3_8 + G_1_3_8 + G_2_3_8 + G_3_3_8 + G_4_3_8 + G_5_3_8 + G_6_3_8
   + G_7_3_8 + G_8_3_8 = 1
 C_4_0: G_0_4_0 + G_1_4_0 + G_2_4_0 + G_3_4_0 + G_4_4_0 + G_5_4_0 + G_6_4_0
   + G_7_4_0 + G_8_4_0 = 1
 C_4_1: G_0_4_1 + G_1_4_1 + G_2_4_1 + G_3_4_1 + G_4_4_1 + G_5_4_1 + G_6_4_1
   + G_7_4_1 + G_8_4_1 = 1
 C_4_2: G_0_4_2 + G_1_4_2 + G_2_4_2 + G_3_4_2 + G_4_4_2 + G_5_4_2 + G_6_4_2
   + G_7_4_2 + G_8_4_2 = 1
 C_4_3: G_0_4_3 + G_1_4_3 + G_2_4_3 + G_3_4_3 + G_4_4_3 + G_5_4_3 + G_6_4_3
   + G_7_4_3 + G_8_4_3 = 1
 C_4_4: G_0_4_4 + G_1_4_4 + G_2_4_4 + G_3_4_4 + G_4_4_4 + G_5_4_4 + G_6_4_4
   + G_7_4_4 + G_8_4_4 = 1
 C_4_5: G_0_4_5 + G_1_4_5 + G_2_4_5 + G_3_4_5 + G_4_4_5 + G_5_4_5 + G_6_4_5
   + G_7_4_5 + G_8_4_5 = 1
 C_4_6: G_0_4_6 + G_1_4_6 + G_2_4_6 + G_3_4_6 + G_4_4_6 + G_5_4_6 + G_6_4_6
   + G_7_4_6 + G_8_4_6 = 1
 C_4_7: G_0_4_7 + G_1_4_7 + G_2_4_7 + G_3_4_7 + G_4_4_7 + G_5_4_7 + G_6_4_7
   + G_7_4_7 + G_8_4_7 = 1
 C_4_8: G_0_4_8 + G_1_4_8 + G_2_4_8 + G_3_4_8 + G_4_4_8 + G_5_4_8 + G_6_4_8
   + G_7_4_8 + G_8_4_8 = 1
 C_5_0: G_0_5_0 + G_1_5_0 + G_2_5_0 + G_3_5_0 + G_4_5_0 + G_5_5_0 + G_6_5_0
   + G_7_5_0 + G_8_5_0 = 1
 C_5_1: G_0_5_1 + G_1_5_1 + G_2_5_1 + G_3_5_1 + G_4_5_1 + G_5_5_1 + G_6_5_1
   + G_7_5_1 + G_8_5_1 = 1
 C_5_2: G_0_5_2 + G_1_5_2 + G_2_5_2 + G_3_5_2 + G_4_5_2 + G_5_5_2 + G_6_5_2
   + G_7_5_2 + G_8_5_2 = 1
 C_5_3: G_0_5_3 + G_1_5_3 + G_2_5_3 + G_3_5_3 + G_4_5_3 + G_5_5_3 + G_6_5_3
   + G_7_5_3 + G_8_5_3 = 1
 C_5_4: G_0_5_4 + G_1_5_4 + G_2_5_4 + G_3_5_4 + G_4_5_4 + G_5_5_4 + G_6_5_4
   + G_7_5_4 + G_8_5_4 = 1
 C_5_5: G_0_5_5 + G_1_5_5 + G_2_5_5 + G_3_5_5 + G_4_5_5 + G_5_5_5 + G_6_5_5
   + G_7_5_5 + G_8_5_5 = 1
 C_5_6: G_0_5_6 + G_1_5_6 + G_2_5_6 + G_3_5_6 + G_4_5_6 + G_5_5_6 + G_6_5_6
   + G_7_5_6 + G_8_5_6 = 1
 C_5_7: G_0_5_7 + G_1_5_7 + G_2_5_7 + G_3_5_7 + G_4_5_7 + G_5_5_7 + G_6_5_7
   + G_7_5_7 + G_8_5_7 = 1
 C_5_8: G_0_5_8 + G_1_5_8 + G_2_5_8 + G_3_5_8 + G_4_5_8 + G_5_5_8 + G_6_5_8
   + G_7_5_8 + G_8_5_8 = 1
 C_6_0: G_0_6_0 + G_1_6_0 + G_2_6_0 + G_3_6_0 + G_4_6_0 + G_5_6_0 + G_6_6_0
   + G_7_6_0 + G_8_6_0 = 1
 C_6_1: G_0_6_1 + G_1_6_1 + G_2_6_1 + G_3_6_1 + G_4_6_1 + G_5_6_1 + G_6_6_1
   + G_7_6_1 + G_8_6_1 = 1
 C_6_2: G_0_6_2 + G_1_6_2 + G_2_6_2 + G_3_6_2 + G_4_6_2 + G_5_6_2 + G_6_6_2
   + G_7_6_2 + G_8_6_2 = 1
 C_6_3: G_0_6_3 + G_1_6_3 + G_2_6_3 + G_3_6_3 + G_4_6_3 + G_5_6_3 + G_6_6_3
   + G_7_6_3 + G_8_6_3 = 1
 C_6_4: G_0_6_4 + G_1_6_4 + G_2_6_4 + G_3_6_4 + G_4_6_4 + G_5_6_4 + G_6_6_4
   + G_7_6_4 + G_8_6_4 = 1
 C_6_5: G_0_6_5 + G_1_6_5 + G_2_6_5 + G_3_6_5 + G_4_6_5 + G_5_6_5 + G_6_6_5
   + G_7_6_5 + G_8_6_5 = 1
 C_6_6: G_0_6_6 + G_1_6_6 + G_2_6_6 + G_3_6_6 + G_4_6_6 + G_5_6_6 + G_6_6_6
   + G_7_6_6 + G_8_6_6 = 1
 C_6_7: G_0_6_7 + G_1_6_7 + G_2_6_7 + G_3_6_7 + G_4_6_7 + G_5_6_7 + G_6_6_7
   + G_7_6_7 + G_8_6_7 = 1
 C_6_8: G_0_6_8 + G_1_6_8 + G_2_6_8 + G_3_6_8 + G_4_6_8 + G_5_6_8 + G_6_6_8
   + G_7_6_8 + G_8_6_8 = 1
 C_7_0: G_0_7_0 + G_1_7_0 + G_2_7_0 + G_3_7_0 + G_4_7_0 + G_5_7_0 + G_6_7_0
   + G_7_7_0 + G_8_7_0 = 1
 C_7_1: G_0_7_1 + G_1_7_1 + G_2_7_1 + G_3_7_1 + G_4_7_1 + G_5_7_1 + G_6_7_1
   + G_7_7_1 + G_8_7_1 = 1
 C_7_2: G_0_7_2 + G_1_7_2 + G_2_7_2 + G_3_7_2 + G_4_7_2 + G_5_7_2 + G_6_7_2
   + G_7_7_2 + G_8_7_2 = 1
 C_7_3: G_0_7_3 + G_1_7_3 + G_2_7_3 + G_3_7_3 + G_4_7_3 + G_5_7_3 + G_6_7_3
   + G_7_7_3 + G_8_7_3 = 1
 C_7_4: G_0_7_4 + G_1_7_4 + G_2_7_4 + G_3_7_4 + G_4_7_4 + G_5_7_4 + G_6_7_4
   + G_7_7_4 + G_8_7_4 = 1
 C_7_5: G_0_7_5 + G_1_7_5 + G_2_7_5 + G_3_7_5 + G_4_7_5 + G_5_7_5 + G_6_7_5
   + G_7_7_5 + G_8_7_5 = 1
 C_7_6: G_0_7_6 + G_1_7_6 + G_2_7_6 + G_3_7_6 + G_4_7_6 + G_5_7_6 + G_6_7_6
   + G_7_7_6 + G_8_7_6 = 1
 C_7_7: G_0_7_7 + G_1_7_7 + G_2_7_7 + G_3_7_7 + G_4_7_7 + G_5_7_7 + G_6_7_7
   + G_7_7_7 + G_8_7_7 = 1
 C_7_8: G_0_7_8 + G_1_7_8 + G_2_7_8 + G_3_7_8 + G_4_7_8 + G_5_7_8 + G_6_7_8
   + G_7_7_8 + G_8_7_8 = 1
 C_8_0: G_0_8_0 + G_1_8_0 + G_2_8_0 + G_3_8_0 + G_4_8_0 + G_5_8_0 + G_6_8_0
   + G_7_8_0 + G_8_8_0 = 1
 C_8_1: G_0_8_1 + G_1_8_1 + G_2_8_1 + G_3_8_1 + G_4_8_1 + G_5_8_1 + G_6_8_1
   + G_7_8_1 + G_8_8_1 = 1
 C_8_2: G_0_8_2 + G_1_8_2 + G_2_8_2 + G_3_8_2 + G_4_8_2 + G_5_8_2 + G_6_8_2
   + G_7_8_2 + G_8_8_2 = 1
 C_8_3: G_0_8_3 + G_1_8_3 + G_2_8_3 + G_3_8_3 + G_4_8_3 + G_5_8_3 + G_6_8_3
   + G_7_8_3 + G_8_8_3 = 1
 C_8_4: G_0_8_4 + G_1_8_4 + G_2_8_4 + G_3_8_4 + G_4_8_4 + G_5_8_4 + G_6_8_4
   + G_7_8_4 + G_8_8_4 = 1
 C_8_5: G_0_8_5 + G_1_8_5 + G_2_8_5 + G_3_8_5 + G_4_8_5 + G_5_8_5 + G_6_8_5
   + G_7_8_5 + G_8_8_5 = 1
 C_8_6: G_0_8_6 + G_1_8_6 + G_2_8_6 + G_3_8_6 + G_4_8_6 + G_5_8_6 + G_6_8_6
   + G_7_8_6 + G_8_8_6 = 1
 C_8_7: G_0_8_7 + G_1_8_7 + G_2_8_7 + G_3_8_7 + G_4_8_7 + G_5_8_7 + G_6_8_7
   + G_7_8_7 + G_8_8_7 = 1
 C_8_8: G_0_8_8 + G_1_8_8 + G_2_8_8 + G_3_8_8 + G_4_8_8 + G_5_8_8 + G_6_8_8
   + G_7_8_8 + G_8_8_8 = 1
 Sub_0_0_0: G_0_0_0 + G_0_1_0 + G_0_2_0 + G_1_0_0 + G_1_1_0 + G_1_2_0
   + G_2_0_0 + G_2_1_0 + G_2_2_0 = 1
 Sub_0_0_1: G_0_3_0 + G_0_4_0 + G_0_5_0 + G_1_3_0 + G_1_4_0 + G_1_5_0
   + G_2_3_0 + G_2_4_0 + G_2_5_0 = 1
 Sub_0_0_2: G_0_6_0 + G_0_7_0 + G_0_8_0 + G_1_6_0 + G_1_7_0 + G_1_8_0
   + G_2_6_0 + G_2_7_0 + G_2_8_0 = 1
 Sub_0_1_0: G_3_0_0 + G_3_1_0 + G_3_2_0 + G_4_0_0 + G_4_1_0 + G_4_2_0
   + G_5_0_0 + G_5_1_0 + G_5_2_0 = 1
 Sub_0_1_1: G_3_3_0 + G_3_4_0 + G_3_5_0 + G_4_3_0 + G_4_4_0 + G_4_5_0
   + G_5_3_0 + G_5_4_0 + G_5_5_0 = 1
 Sub_0_1_2: G_3_6_0 + G_3_7_0 + G_3_8_0 + G_4_6_0 + G_4_7_0 + G_4_8_0
   + G_5_6_0 + G_5_7_0 + G_5_8_0 = 1
 Sub_0_2_0: G_6_0_0 + G_6_1_0 + G_6_2_0 + G_7_0_0 + G_7_1_0 + G_7_2_0
   + G_8_0_0 + G_8_1_0 + G_8_2_0 = 1
 Sub_0_2_1: G_6_3_0 + G_6_4_0 + G_6_5_0 + G_7_3_0 + G_7_4_0 + G_7_5_0
   + G_8_3_0 + G_8_4_0 + G_8_5_0 = 1
 Sub_0_2_2: G_6_6_0 + G_6_7_0 + G_6_8_0 + G_7_6_0 + G_7_7_0 + G_7_8_0
   + G_8_6_0 + G_8_7_0 + G_8_8_0 = 1
 Sub_1_0_0: G_0_0_1 + G_0_1_1 + G_0_2_1 + G_1_0_1 + G_1_1_1 + G_1_2_1
   + G_2_0_1 + G_2_1_1 + G_2_2_1 = 1
 Sub_1_0_1: G_0_3_1 + G_0_4_1 + G_0_5_1 + G_1_3_1 + G_1_4_1 + G_1_5_1
   + G_2_3_1 + G_2_4_1 + G_2_5_1 = 1
 Sub_1_0_2: G_0_6_1 + G_0_7_1 + G_0_8_1 + G_1_6_1 + G_1_7_1 + G_1_8_1
   + G_2_6_1 + G_2_7_1 + G_2_8_1 = 1
 Sub_1_1_0: G_3_0_1 + G_3_1_1 + G_3_2_1 + G_4_0_1 + G_4_1_1 + G_4_2_1
   + G_5_0_1 + G_5_1_1 + G_5_2_1 = 1
 Sub_1_1_1: G_3_3_1 + G_3_4_1 + G_3_5_1 + G_4_3_1 + G_4_4_1 + G_4_5_1
   + G_5_3_1 + G_5_4_1 + G_5_5_1 = 1
 Sub_1_1_2: G_3_6_1 + G_3_7_1 + G_3_8_1 + G_4_6_1 + G_4_7_1 + G_4_8_1
   + G_5_6_1 + G_5_7_1 + G_5_8_1 = 1
 Sub_1_2_0: G_6_0_1 + G_6_1_1 + G_6_2_1 + G_7_0_1 + G_7_1_1 + G_7_2_1
   + G_8_0_1 + G_8_1_1 + G_8_2_1 = 1
 Sub_1_2_1: G_6_3_1 + G_6_4_1 + G_6_5_1 + G_7_3_1 + G_7_4_1 + G_7_5_1
   + G_8_3_1 + G_8_4_1 + G_8_5_1 = 1
 Sub_1_2_2: G_6_6_1 + G_6_7_1 + G_6_8_1 + G_7_6_1 + G_7_7_1 + G_7_8_1
   + G_8_6_1 + G_8_7_1 + G_8_8_1 = 1
 Sub_2_0_0: G_0_0_2 + G_0_1_2 + G_0_2_2 + G_1_0_2 + G_1_1_2 + G_1_2_2
   + G_2_0_2 + G_2_1_2 + G_2_2_2 = 1
 Sub_2_0_1: G_0_3_2 + G_0_4_2 + G_0_5_2 + G_1_3_2 + G_1_4_2 + G_1_5_2
   + G_2_3_2 + G_2_4_2 + G_2_5_2 = 1
 Sub_2_0_2: G_0_6_2 + G_0_7_2 + G_0_8_2 + G_1_6_2 + G_1_7_2 + G_1_8_2
   + G_2_6_2 + G_2_7_2 + G_2_8_2 = 1
 Sub_2_1_0: G_3_0_2 + G_3_1_2 + G_3_2_2 + G_4_0_2 + G_4_1_2 + G_4_2_2
   + G_5_0_2 + G_5_1_2 + G_5_2_2 = 1
 Sub_2_1_1: G_3_3_2 + G_3_4_2 + G_3_5_2 + G_4_3_2 + G_4_4_2 + G_4_5_2
   + G_5_3_2 + G_5_4_2 + G_5_5_2 = 1
 Sub_2_1_2: G_3_6_2 + G_3_7_2 + G_3_8_2 + G_4_6_2 + G_4_7_2 + G_4_8_2
   + G_5_6_2 + G_5_7_2 + G_5_8_2 = 1
 Sub_2_2_0: G_6_0_2 + G_6_1_2 + G_6_2_2 + G_7_0_2 + G_7_1_2 + G_7_2_2
   + G_8_0_2 + G_8_1_2 + G_8_2_2 = 1
 Sub_2_2_1: G_6_3_2 + G_6_4_2 + G_6_5_2 + G_7_3_2 + G_7_4_2 + G_7_5_2
   + G_8_3_2 + G_8_4_2 + G_8_5_2 = 1
 Sub_2_2_2: G_6_6_2 + G_6_7_2 + G_6_8_2 + G_7_6_2 + G_7_7_2 + G_7_8_2
   + G_8_6_2 + G_8_7_2 + G_8_8_2 = 1
 Sub_3_0_0: G_0_0_3 + G_0_1_3 + G_0_2_3 + G_1_0_3 + G_1_1_3 + G_1_2_3
   + G_2_0_3 + G_2_1_3 + G_2_2_3 = 1
 Sub_3_0_1: G_0_3_3 + G_0_4_3 + G_0_5_3 + G_1_3_3 + G_1_4_3 + G_1_5_3
   + G_2_3_3 + G_2_4_3 + G_2_5_3 = 1
 Sub_3_0_2: G_0_6_3 + G_0_7_3 + G_0_8_3 + G_1_6_3 + G_1_7_3 + G_1_8_3
   + G_2_6_3 + G_2_7_3 + G_2_8_3 = 1
 Sub_3_1_0: G_3_0_3 + G_3_1_3 + G_3_2_3 + G_4_0_3 + G_4_1_3 + G_4_2_3
   + G_5_0_3 + G_5_1_3 + G_5_2_3 = 1
 Sub_3_1_1: G_3_3_3 + G_3_4_3 + G_3_5_3 + G_4_3_3 + G_4_4_3 + G_4_5_3
   + G_5_3_3 + G_5_4_3 + G_5_5_3 = 1
 Sub_3_1_2: G_3_6_3 + G_3_7_3 + G_3_8_3 + G_4_6_3 + G_4_7_3 + G_4_8_3
   + G_5_6_3 + G_5_7_3 + G_5_8_3 = 1
 Sub_3_2_0: G_6_0_3 + G_6_1_3 + G_6_2_3 + G_7_0_3 + G_7_1_3 + G_7_2_3
   + G_8_0_3 + G_8_1_3 + G_8_2_3 = 1
 Sub_3_2_1: G_6_3_3 + G_6_4_3 + G_6_5_3 + G_7_3_3 + G_7_4_3 + G_7_5_3
   + G_8_3_3 + G_8_4_3 + G_8_5_3 = 1
 Sub_3_2_2: G_6_6_3 + G_6_7_3 + G_6_8_3 + G_7_6_3 + G_7_7_3 + G_7_8_3
   + G_8_6_3 + G_8_7_3 + G_8_8_3 = 1
 Sub_4_0_0: G_0_0_4 + G_0_1_4 + G_0_2_4 + G_1_0_4 + G_1_1_4 + G_1_2_4
   + G_2_0_4 + G_2_1_4 + G_2_2_4 = 1
 Sub_4_0_1: G_0_3_4 + G_0_4_4 + G_0_5_4 + G_1_3_4 + G_1_4_4 + G_1_5_4
   + G_2_3_4 + G_2_4_4 + G_2_5_4 = 1
 Sub_4_0_2: G_0_6_4 + G_0_7_4 + G_0_8_4 + G_1_6_4 + G_1_7_4 + G_1_8_4
   + G_2_6_4 + G_2_7_4 + G_2_8_4 = 1
 Sub_4_1_0: G_3_0_4 + G_3_1_4 + G_3_2_4 + G_4_0_4 + G_4_1_4 + G_4_2_4
   + G_5_0_4 + G_5_1_4 + G_5_2_4 = 1
 Sub_4_1_1: G_3_3_4 + G_3_4_4 + G_3_5_4 + G_4_3_4 + G_4_4_4 + G_4_5_4
   + G_5_3_4 + G_5_4_4 + G_5_5_4 = 1
 Sub_4_1_2: G_3_6_4 + G_3_7_4 + G_3_8_4 + G_4_6_4 + G_4_7_4 + G_4_8_4
   + G_5_6_4 + G_5_7_4 + G_5_8_4 = 1
 Sub_4_2_0: G_6_0_4 + G_6_1_4 + G_6_2_4 + G_7_0_4 + G_7_1_4 + G_7_2_4
   + G_8_0_4 + G_8_1_4 + G_8_2_4 = 1
 Sub_4_2_1: G_6_3_4 + G_6_4_4 + G_6_5_4 + G_7_3_4 + G_7_4_4 + G_7_5_4
   + G_8_3_4 + G_8_4_4 + G_8_5_4 = 1
 Sub_4_2_2: G_6_6_4 + G_6_7_4 + G_6_8_4 + G_7_6_4 + G_7_7_4 + G_7_8_4
   + G_8_6_4 + G_8_7_4 + G_8_8_4 = 1
 Sub_5_0_0: G_0_0_5 + G_0_1_5 + G_0_2_5 + G_1_0_5 + G_1_1_5 + G_1_2_5
   + G_2_0_5 + G_2_1_5 + G_2_2_5 = 1
 Sub_5_0_1: G_0_3_5 + G_0_4_5 + G_0_5_5 + G_1_3_5 + G_1_4_5 + G_1_5_5
   + G_2_3_5 + G_2_4_5 + G_2_5_5 = 1
 Sub_5_0_2: G_0_6_5 + G_0_7_5 + G_0_8_5 + G_1_6_5 + G_1_7_5 + G_1_8_5
   + G_2_6_5 + G_2_7_5 + G_2_8_5 = 1
 Sub_5_1_0: G_3_0_5 + G_3_1_5 + G_3_2_5 + G_4_0_5 + G_4_1_5 + G_4_2_5
   + G_5_0_5 + G_5_1_5 + G_5_2_5 = 1
 Sub_5_1_1: G_3_3_5 + G_3_4_5 + G_3_5_5 + G_4_3_5 + G_4_4_5 + G_4_5_5
   + G_5_3_5 + G_5_4_5 + G_5_5_5 = 1
 Sub_5_1_2: G_3_6_5 + G_3_7_5 + G_3_8_5 + G_4_6_5 + G_4_7_5 + G_4_8_5
   + G_5_6_5 + G_5_7_5 + G_5_8_5 = 1
 Sub_5_2_0: G_6_0_5 + G_6_1_5 + G_6_2_5 + G_7_0_5 + G_7_1_5 + G_7_2_5
   + G_8_0_5 + G_8_1_5 + G_8_2_5 = 1
 Sub_5_2_1: G_6_3_5 + G_6_4_5 + G_6_5_5 + G_7_3_5 + G_7_4_5 + G_7_5_5
   + G_8_3_5 + G_8_4_5 + G_8_5_5 = 1
 Sub_5_2_2: G_6_6_5 + G_6_7_5 + G_6_8_5 + G_7_6_5 + G_7_7_5 + G_7_8_5
   + G_8_6_5 + G_8_7_5 + G_8_8_5 = 1
 Sub_6_0_0: G_0_0_6 + G_0_1_6 + G_0_2_6 + G_1_0_6 + G_1_1_6 + G_1_2_6
   + G_2_0_6 + G_2_1_6 + G_2_2_6 = 1
 Sub_6_0_1: G_0_3_6 + G_0_4_6 + G_0_5_6 + G_1_3_6 + G_1_4_6 + G_1_5_6
   + G_2_3_6 + G_2_4_6 + G_2_5_6 = 1
 Sub_6_0_2: G_0_6_6 + G_0_7_6 + G_0_8_6 + G_1_6_6 + G_1_7_6 + G_1_8_6
   + G_2_6_6 + G_2_7_6 + G_2_8_6 = 1
 Sub_6_1_0: G_3_0_6 + G_3_1_6 + G_3_2_6 + G_4_0_6 + G_4_1_6 + G_4_2_6
   + G_5_0_6 + G_5_1_6 + G_5_2_6 = 1
 Sub_6_1_1: G_3_3_6 + G_3_4_6 + G_3_5_6 + G_4_3_6 + G_4_4_6 + G_4_5_6
   + G_5_3_6 + G_5_4_6 + G_5_5_6 = 1
 Sub_6_1_2: G_3_6_6 + G_3_7_6 + G_3_8_6 + G_4_6_6 + G_4_7_6 + G_4_8_6
   + G_5_6_6 + G_5_7_6 + G_5_8_6 = 1
 Sub_6_2_0: G_6_0_6 + G_6_1_6 + G_6_2_6 + G_7_0_6 + G_7_1_6 + G_7_2_6
   + G_8_0_6 + G_8_1_6 + G_8_2_6 = 1
 Sub_6_2_1: G_6_3_6 + G_6_4_6 + G_6_5_6 + G_7_3_6 + G_7_4_6 + G_7_5_6
   + G_8_3_6 + G_8_4_6 + G_8_5_6 = 1
 Sub_6_2_2: G_6_6_6 + G_6_7_6 + G_6_8_6 + G_7_6_6 + G_7_7_6 + G_7_8_6
   + G_8_6_6 + G_8_7_6 + G_8_8_6 = 1
 Sub_7_0_0: G_0_0_7 + G_0_1_7 + G_0_2_7 + G_1_0_7 + G_1_1_7 + G_1_2_7
   + G_2_0_7 + G_2_1_7 + G_2_2_7 = 1
 Sub_7_0_1: G_0_3_7 + G_0_4_7 + G_0_5_7 + G_1_3_7 + G_1_4_7 + G_1_5_7
   + G_2_3_7 + G_2_4_7 + G_2_5_7 = 1
 Sub_7_0_2: G_0_6_7 + G_0_7_7 + G_0_8_7 + G_1_6_7 + G_1_7_7 + G_1_8_7
   + G_2_6_7 + G_2_7_7 + G_2_8_7 = 1
 Sub_7_1_0: G_3_0_7 + G_3_1_7 + G_3_2_7 + G_4_0_7 + G_4_1_7 + G_4_2_7
   + G_5_0_7 + G_5_1_7 + G_5_2_7 = 1
 Sub_7_1_1: G_3_3_7 + G_3_4_7 + G_3_5_7 + G_4_3_7 + G_4_4_7 + G_4_5_7
   + G_5_3_7 + G_5_4_7 + G_5_5_7 = 1
 Sub_7_1_2: G_3_6_7 + G_3_7_7 + G_3_8_7 + G_4_6_7 + G_4_7_7 + G_4_8_7
   + G_5_6_7 + G_5_7_7 + G_5_8_7 = 1
 Sub_7_2_0: G_6_0_7 + G_6_1_7 + G_6_2_7 + G_7_0_7 + G_7_1_7 + G_7_2_7
   + G_8_0_7 + G_8_1_7 + G_8_2_7 = 1
 Sub_7_2_1: G_6_3_7 + G_6_4_7 + G_6_5_7 + G_7_3_7 + G_7_4_7 + G_7_5_7
   + G_8_3_7 + G_8_4_7 + G_8_5_7 = 1
 Sub_7_2_2: G_6_6_7 + G_6_7_7 + G_6_8_7 + G_7_6_7 + G_7_7_7 + G_7_8_7
   + G_8_6_7 + G_8_7_7 + G_8_8_7 = 1
 Sub_8_0_0: G_0_0_8 + G_0_1_8 + G_0_2_8 + G_1_0_8 + G_1_1_8 + G_1_2_8
   + G_2_0_8 + G_2_1_8 + G_2_2_8 = 1
 Sub_8_0_1: G_0_3_8 + G_0_4_8 + G_0_5_8 + G_1_3_8 + G_1_4_8 + G_1_5_8
   + G_2_3_8 + G_2_4_8 + G_2_5_8 = 1
 Sub_8_0_2: G_0_6_8 + G_0_7_8 + G_0_8_8 + G_1_6_8 + G_1_7_8 + G_1_8_8
   + G_2_6_8 + G_2_7_8 + G_2_8_8 = 1
 Sub_8_1_0: G_3_0_8 + G_3_1_8 + G_3_2_8 + G_4_0_8 + G_4_1_8 + G_4_2_8
   + G_5_0_8 + G_5_1_8 + G_5_2_8 = 1
 Sub_8_1_1: G_3_3_8 + G_3_4_8 + G_3_5_8 + G_4_3_8 + G_4_4_8 + G_4_5_8
   + G_5_3_8 + G_5_4_8 + G_5_5_8 = 1
 Sub_8_1_2: G_3_6_8 + G_3_7_8 + G_3_8_8 + G_4_6_8 + G_4_7_8 + G_4_8_8
   + G_5_6_8 + G_5_7_8 + G_5_8_8 = 1
 Sub_8_2_0: G_6_0_8 + G_6_1_8 + G_6_2_8 + G_7_0_8 + G_7_1_8 + G_7_2_8
   + G_8_0_8 + G_8_1_8 + G_8_2_8 = 1
 Sub_8_2_1: G_6_3_8 + G_6_4_8 + G_6_5_8 + G_7_3_8 + G_7_4_8 + G_7_5_8
   + G_8_3_8 + G_8_4_8 + G_8_5_8 = 1
 Sub_8_2_2: G_6_6_8 + G_6_7_8 + G_6_8_8 + G_7_6_8 + G_7_7_8 + G_7_8_8
   + G_8_6_8 + G_8_7_8 + G_8_8_8 = 1
Bounds
Binaries
 G_0_0_0 G_0_0_1 G_0_0_2 G_0_0_3 G_0_0_4 G_0_0_5 G_0_0_6 G_0_0_7 G_0_0_8
 G_0_1_0 G_0_1_1 G_0_1_2 G_0_1_3 G_0_1_4 G_0_1_5 G_0_1_6 G_0_1_7 G_0_1_8
 G_0_2_0 G_0_2_1 G_0_2_2 G_0_2_3 G_0_2_4 G_0_2_5 G_0_2_6 G_0_2_7 G_0_2_8
 G_0_3_0 G_0_3_1 G_0_3_2 G_0_3_3 G_0_3_4 G_0_3_5 G_0_3_6 G_0_3_7 G_0_3_8
 G_0_4_0 G_0_4_1 G_0_4_2 G_0_4_3 G_0_4_4 G_0_4_5 G_0_4_6 G_0_4_7 G_0_4_8
 G_0_5_0 G_0_5_1 G_0_5_2 G_0_5_3 G_0_5_4 G_0_5_5 G_0_5_6 G_0_5_7 G_0_5_8
 G_0_6_0 G_0_6_1 G_0_6_2 G_0_6_3 G_0_6_4 G_0_6_5 G_0_6_6 G_0_6_7 G_0_6_8
 G_0_7_0 G_0_7_1 G_0_7_2 G_0_7_3 G_0_7_4 G_0_7_5 G_0_7_6 G_0_7_7 G_0_7_8
 G_0_8_0 G_0_8_1 G_0_8_2 G_0_8_3 G_0_8_4 G_0_8_5 G_0_8_6 G_0_8_7 G_0_8_8
 G_1_0_0 G_1_0_1 G_1_0_2 G_1_0_3 G_1_0_4 G_1_0_5 G_1_0_6 G_1_0_7 G_1_0_8
 G_1_1_0 G_1_1_1 G_1_1_2 G_1_1_3 G_1_1_4 G_1_1_5 G_1_1_6 G_1_1_7 G_1_1_8
 G_1_2_0 G_1_2_1 G_1_2_2 G_1_2_3 G_1_2_4 G_1_2_5 G_1_2_6 G_1_2_7 G_1_2_8
 G_1_3_0 G_1_3_1 G_1_3_2 G_1_3_3 G_1_3_4 G_1_3_5 G_1_3_6 G_1_3_7 G_1_3_8
 G_1_4_0 G_1_4_1 G_1_4_2 G_1_4_3 G_1_4_4 G_1_4_5 G_1_4_6 G_1_4_7 G_1_4_8
 G_1_5_0 G_1_5_1 G_1_5_2 G_1_5_3 G_1_5_4 G_1_5_5 G_1_5_6 G_1_5_7 G_1_5_8
 G_1_6_0 G_1_6_1 G_1_6_2 G_1_6_3 G_1_6_4 G_1_6_5 G_1_6_6 G_1_6_7 G_1_6_8
 G_1_7_0 G_1_7_1 G_1_7_2 G_1_7_3 G_1_7_4 G_1_7_5 G_1_7_6 G_1_7_7 G_1_7_8
 G_1_8_0 G_1_8_1 G_1_8_2 G_1_8_3 G_1_8_4 G_1_8_5 G_1_8_6 G_1_8_7 G_1_8_8
 G_2_0_0 G_2_0_1 G_2_0_2 G_2_0_3 G_2_0_4 G_2_0_5 G_2_0_6 G_2_0_7 G_2_0_8
 G_2_1_0 G_2_1_1 G_2_1_2 G_2_1_3 G_2_1_4 G_2_1_5 G_2_1_6 G_2_1_7 G_2_1_8
 G_2_2_0 G_2_2_1 G_2_2_2 G_2_2_3 G_2_2_4 G_2_2_5 G_2_2_6 G_2_2_7 G_2_2_8
 G_2_3_0 G_2_3_1 G_2_3_2 G_2_3_3 G_2_3_4 G_2_3_5 G_2_3_6 G_2_3_7 G_2_3_8
 G_2_4_0 G_2_4_1 G_2_4_2 G_2_4_3 G_2_4_4 G_2_4_5 G_2_4_6 G_2_4_7 G_2_4_8
 G_2_5_0 G_2_5_1 G_2_5_2 G_2_5_3 G_2_5_4 G_2_5_5 G_2_5_6 G_2_5_7 G_2_5_8
 G_2_6_0 G_2_6_1 G_2_6_2 G_2_6_3 G_2_6_4 G_2_6_5 G_2_6_6 G_2_6_7 G_2_6_8
 G_2_7_0 G_2_7_1 G_2_7_2 G_2_7_3 G_2_7_4 G_2_7_5 G_2_7_6 G_2_7_7 G_2_7_8
 G_2_8_0 G_2_8_1 G_2_8_2 G_2_8_3 G_2_8_4 G_2_8_5 G_2_8_6 G_2_8_7 G_2_8_8
 G_3_0_0 G_3_0_1 G_3_0_2 G_3_0_3 G_3_0_4 G_3_0_5 G_3_0_6 G_3_0_7 G_3_0_8
 G_3_1_0 G_3_1_1 G_3_1_2 G_3_1_3 G_3_1_4 G_3_1_5 G_3_1_6 G_3_1_7 G_3_1_8
 G_3_2_0 G_3_2_1 G_3_2_2 G_3_2_3 G_3_2_4 G_3_2_5 G_3_2_6 G_3_2_7 G_3_2_8
 G_3_3_0 G_3_3_1 G_3_3_2 G_3_3_3 G_3_3_4 G_3_3_5 G_3_3_6 G_3_3_7 G_3_3_8
 G_3_4_0 G_3_4_1 G_3_4_2 G_3_4_3 G_3_4_4 G_3_4_5 G_3_4_6 G_3_4_7 G_3_4_8
 G_3_5_0 G_3_5_1 G_3_5_2 G_3_5_3 G_3_5_4 G_3_5_5 G_3_5_6 G_3_5_7 G_3_5_8
 G_3_6_0 G_3_6_1 G_3_6_2 G_3_6_3 G_3_6_4 G_3_6_5 G_3_6_6 G_3_6_7 G_3_6_8
 G_3_7_0 G_3_7_1 G_3_7_2 G_3_7_3 G_3_7_4 G_3_7_5 G_3_7_6 G_3_7_7 G_3_7_8
 G_3_8_0 G_3_8_1 G_3_8_2 G_3_8_3 G_3_8_4 G_3_8_5 G_3_8_6 G_3_8_7 G_3_8_8
 G_4_0_0 G_4_0_1 G_4_0_2 G_4_0_3 G_4_0_4 G_4_0_5 G_4_0_6 G_4_0_7 G_4_0_8
 G_4_1_0 G_4_1_1 G_4_1_2 G_4_1_3 G_4_1_4 G_4_1_5 G_4_1_6 G_4_1_7 G_4_1_8
 G_4_2_0 G_4_2_1 G_4_2_2 G_4_2_3 G_4_2_4 G_4_2_5 G_4_2_6 G_4_2_7 G_4_2_8
 G_4_3_0 G_4_3_1 G_4_3_2 G_4_3_3 G_4_3_4 G_4_3_5 G_4_3_6 G_4_3_7 G_4_3_8
 G_4_4_0 G_4_4_1 G_4_4_2 G_4_4_3 G_4_4_4 G_4_4_5 G_4_4_6 G_4_4_7 G_4_4_8
 G_4_5_0 G_4_5_1 G_4_5_2 G_4_5_3 G_4_5_4 G_4_5_5 G_4_5_6 G_4_5_7 G_4_5_8
 G_4_6_0 G_4_6_1 G_4_6_2 G_4_6_3 G_4_6_4 G_4_6_5 G_4_6_6 G_4_6_7 G_4_6_8
 G_4_7_0 G_4_7_1 G_4_7_2 G_4_7_3 G_4_7_4 G_4_7_5 G_4_7_6 G_4_7_7 G_4_7_8
 G_4_8_0 G_4_8_1 G_4_8_2 G_4_8_3 G_4_8_4 G_4_8_5 G_4_8_6 G_4_8_7 G_4_8_8
 G_5_0_0 G_5_0_1 G_5_0_2 G_5_0_3 G_5_0_4 G_5_0_5 G_5_0_6 G_5_0_7 G_5_0_8
 G_5_1_0 G_5_1_1 G_5_1_2 G_5_1_3 G_5_1_4 G_5_1_5 G_5_1_6 G_5_1_7 G_5_1_8
 G_5_2_0 G_5_2_1 G_5_2_2 G_5_2_3 G_5_2_4 G_5_2_5 G_5_2_6 G_5_2_7 G_5_2_8
 G_5_3_0 G_5_3_1 G_5_3_2 G_5_3_3 G_5_3_4 G_5_3_5 G_5_3_6 G_5_3_7 G_5_3_8
 G_5_4_0 G_5_4_1 G_5_4_2 G_5_4_3 G_5_4_4 G_5_4_5 G_5_4_6 G_5_4_7 G_5_4_8
 G_5_5_0 G_5_5_1 G_5_5_2 G_5_5_3 G_5_5_4 G_5_5_5 G_5_5_6 G_5_5_7 G_5_5_8
 G_5_6_0 G_5_6_1 G_5_6_2 G_5_6_3 G_5_6_4 G_5_6_5 G_5_6_6 G_5_6_7 G_5_6_8
 G_5_7_0 G_5_7_1 G_5_7_2 G_5_7_3 G_5_7_4 G_5_7_5 G_5_7_6 G_5_7_7 G_5_7_8
 G_5_8_0 G_5_8_1 G_5_8_2 G_5_8_3 G_5_8_4 G_5_8_5 G_5_8_6 G_5_8_7 G_5_8_8
 G_6_0_0 G_6_0_1 G_6_0_2 G_6_0_3 G_6_0_4 G_6_0_5 G_6_0_6 G_6_0_7 G_6_0_8
 G_6_1_0 G_6_1_1 G_6_1_2 G_6_1_3 G_6_1_4 G_6_1_5 G_6_1_6 G_6_1_7 G_6_1_8
 G_6_2_0 G_6_2_1 G_6_2_2 G_6_2_3 G_6_2_4 G_6_2_5 G_6_2_6 G_6_2_7 G_6_2_8
 G_6_3_0 G_6_3_1 G_6_3_2 G_6_3_3 G_6_3_4 G_6_3_5 G_6_3_6 G_6_3_7 G_6_3_8
 G_6_4_0 G_6_4_1 G_6_4_2 G_6_4_3 G_6_4_4 G_6_4_5 G_6_4_6 G_6_4_7 G_6_4_8
 G_6_5_0 G_6_5_1 G_6_5_2 G_6_5_3 G_6_5_4 G_6_5_5 G_6_5_6 G_6_5_7 G_6_5_8
 G_6_6_0 G_6_6_1 G_6_6_2 G_6_6_3 G_6_6_4 G_6_6_5 G_6_6_6 G_6_6_7 G_6_6_8
 G_6_7_0 G_6_7_1 G_6_7_2 G_6_7_3 G_6_7_4 G_6_7_5 G_6_7_6 G_6_7_7 G_6_7_8
 G_6_8_0 G_6_8_1 G_6_8_2 G_6_8_3 G_6_8_4 G_6_8_5 G_6_8_6 G_6_8_7 G_6_8_8
 G_7_0_0 G_7_0_1 G_7_0_2 G_7_0_3 G_7_0_4 G_7_0_5 G_7_0_6 G_7_0_7 G_7_0_8
 G_7_1_0 G_7_1_1 G_7_1_2 G_7_1_3 G_7_1_4 G_7_1_5 G_7_1_6 G_7_1_7 G_7_1_8
 G_7_2_0 G_7_2_1 G_7_2_2 G_7_2_3 G_7_2_4 G_7_2_5 G_7_2_6 G_7_2_7 G_7_2_8
 G_7_3_0 G_7_3_1 G_7_3_2 G_7_3_3 G_7_3_4 G_7_3_5 G_7_3_6 G_7_3_7 G_7_3_8
 G_7_4_0 G_7_4_1 G_7_4_2 G_7_4_3 G_7_4_4 G_7_4_5 G_7_4_6 G_7_4_7 G_7_4_8
 G_7_5_0 G_7_5_1 G_7_5_2 G_7_5_3 G_7_5_4 G_7_5_5 G_7_5_6 G_7_5_7 G_7_5_8
 G_7_6_0 G_7_6_1 G_7_6_2 G_7_6_3 G_7_6_4 G_7_6_5 G_7_6_6 G_7_6_7 G_7_6_8
 G_7_7_0 G_7_7_1 G_7_7_2 G_7_7_3 G_7_7_4 G_7_7_5 G_7_7_6 G_7_7_7 G_7_7_8
 G_7_8_0 G_7_8_1 G_7_8_2 G_7_8_3 G_7_8_4 G_7_8_5 G_7_8_6 G_7_8_7 G_7_8_8
 G_8_0_0 G_8_0_1 G_8_0_2 G_8_0_3 G_8_0_4 G_8_0_5 G_8_0_6 G_8_0_7 G_8_0_8
 G_8_1_0 G_8_1_1 G_8_1_2 G_8_1_3 G_8_1_4 G_8_1_5 G_8_1_6 G_8_1_7 G_8_1_8
 G_8_2_0 G_8_2_1 G_8_2_2 G_8_2_3 G_8_2_4 G_8_2_5 G_8_2_6 G_8_2_7 G_8_2_8
 G_8_3_0 G_8_3_1 G_8_3_2 G_8_3_3 G_8_3_4 G_8_3_5 G_8_3_6 G_8_3_7 G_8_3_8
 G_8_4_0 G_8_4_1 G_8_4_2 G_8_4_3 G_8_4_4 G_8_4_5 G_8_4_6 G_8_4_7 G_8_4_8
 G_8_5_0 G_8_5_1 G_8_5_2 G_8_5_3 G_8_5_4 G_8_5_5 G_8_5_6 G_8_5_7 G_8_5_8
 G_8_6_0 G_8_6_1 G_8_6_2 G_8_6_3 G_8_6_4 G_8_6_5 G_8_6_6 G_8_6_7 G_8_6_8
 G_8_7_0 G_8_7_1 G_8_7_2 G_8_7_3 G_8_7_4 G_8_7_5 G_8_7_6 G_8_7_7 G_8_7_8
 G_8_8_0 G_8_8_1 G_8_8_2 G_8_8_3 G_8_8_4 G_8_8_5 G_8_8_6 G_8_8_7 G_8_8_8
End
